150 577095659
66 134 96 102 138 28 63 83 6 89 38 77 143 103 42 124 79 109 93 34 94 110 72 112 36 73 142 41 144 132 111 130 67 91 146 48 104 61 76 64 55 141 30 128 29 21 19 123 150 71 43 27 60 80 53 10 95 31 127 75 121 117 116 86 131 22 149 57 52 88 14 97 137 54 62 33 25 56 7 99 65 135 147 119 47 32 20 108 12 114 74 113 3 100 148 24 122 133 70 85 105 92 51 115 140 120 13 49 5 129 9 139 26 68 37 18 98 101 82 106 78 145 16 4 59 23 84 8 40 2 17 39 81 1 35 50 45 107 136 11 125 69 46 118 15 87 58 126 44 90 
